52,85
91
83
73
62,142
122
136
76
6
132
73,110
90
83
16,52
125,142
108,126
31,45
3,73
90
128
64
23,33
72,90,116,135
5,125
64,104
79
21,93
42
101,125
26,42,122
30
46,128
79,118
1,118
69,152
127,132
72
2,43,110
47,64
65,114
43
33
96,97
23
149
57,88
8,76
116
20,28,68,92,103,130,141,150,151
127
36
77
25,100
27,145
112
67,71
26
57
36,72
8,74
43,143
51,109,117,134
7
3
66,99
98
46,54
85
43,63
71
35
64,149
81,105
16
72
8,10
25
52
56,75,137
48,70
6,90
15,125
47
115,127
30,72
115
143
135
5
142
63
70
91
96
6,72
4,120
101
6,36
